
%FILE DATA:	Soccer Computational Problem for MiniZinc Models	%
%AUTHOR:	Jack Wall	%
%CONTACT:  	116397063@umail.ucc.ie			%
%LAST UPDATE:	03/03/2020, 16:38:38						%
%DESCRIPTION: 	66 games played with 44 games left				%


n=11; %number of teams

%Games to play
games=[|1,4|2,3|1,3|1,11|8,3|2,6|9,6|9,1|1,9|9,11|3,1|5,7|8,6|3,7|8,5|10,6|7,3|11,4|11,3|5,4|5,6|11,7|7,9|2,1|4,11|3,11|2,10|4,10|11,5|6,11|7,11|9,8|8,2|1,2|1,10|1,7|3,8|4,6|4,9|10,5|10,2|8,1|11,6|7,2|];

%Initial points
iPoints=[17,18,19,14,19,21,19,16,18,9,14];

%POSITION CONSTRAINTS
% [|teamID, operator, position|...]
% operators index:
%  1 for =  operator
%  2 for >  operator
%  3 for >= operator
%  4 for <  operator
%  5 for <= operator
positionConstraints=[|7,3,1|6,2,1|11,2,2|];